(declare-const |K:54:55:57| Int)
(declare-const havoc Int)
(declare-const j Int)
(declare-const |K:65| Int)
(declare-const |j':49| Int)
(declare-const |j':49:56:58| Int)
(declare-const |i':59| Int)
(assert (and (or (not (and (<= (- |K:65|) 0) (<= |K:65| 0)))
                   (= (+ (- j) |j':49|) 0))
               (or (not (<= (+ (- |K:65|) 1) 0)) (= (+ |j':49| -8) 0))
               (or (not (<= (- |K:65|) 0)) (= (+ |i':59| (- |K:65|)) 0))
               (or (and (= |K:65| 0) (= (+ j (- |j':49|)) 0)
                          (= (- |i':59|) 0))
                     (and (<= (+ (- |K:65|) 1) 0) (<= (+ (- havoc) 1) 0)
                            (= (+ |j':49| -8) 0) (<= (+ (- havoc) |i':59|) 0)
                            (<= (+ (- |i':59|) 1) 0))) (<= (- |K:65|) 0)
               (<= (- |i':59|) 0) (< (+ (- havoc) |i':59|) 0)
               (or (not (<= (- |K:54:55:57|) 0))
                     (= (+ |j':49:56:58| (- |K:54:55:57|)) 0))
               (or (and (= |K:54:55:57| 0) (= (- |j':49:56:58|) 0))
                     (and (<= (+ (- |K:54:55:57|) 1) 0)
                            (<= (+ (- havoc) |i':59| 1) 0) (<= (- |i':59|) 0)
                            (<= (+ |j':49:56:58| -8) 0)
                            (<= (+ (- havoc) |i':59| 1) 0) (<= (- |i':59|) 0)
                            (<= (+ (- |j':49:56:58|) 1) 0)))
               (<= (- |K:54:55:57|) 0) (<= (- |j':49:56:58|) 0)
               (< (- havoc) 0) (<= (- |i':59|) 0) (< (+ |j':49:56:58| -8) 0)
               (not (<= (+ (- havoc) |i':59| 1) 0))))
(check-sat)
